(set-logic ALL)
(declare-fun var0 () String)
(assert (str.in_re var0 (re.++ (re.* (re.+ (str.to_re "000"))) (re.++ (re.* (re.+ (str.to_re "111"))) (re.++ (re.union (re.+ (str.to_re "2")) (re.+ (str.to_re "3"))) (re.++ (re.union (re.* (str.to_re "4")) (re.* (str.to_re "555"))) (re.++ (re.+ (re.* (str.to_re "66"))) (re.++ (re.* (re.union (str.to_re "777") (str.to_re "8"))) (re.++ (re.+ (re.+ (str.to_re "999"))) (re.++ (re.* (re.* (str.to_re "aa"))) (re.++ (re.union (re.* (str.to_re "bb")) (re.* (str.to_re "cc"))) (re.++ (re.union (re.+ (str.to_re "d")) (re.+ (str.to_re "ee"))) (re.++ (re.+ (re.+ (str.to_re "f"))) (re.++ (re.union (re.* (str.to_re "ggg")) (re.* (str.to_re "hhh"))) (re.++ (re.+ (re.union (str.to_re "i") (str.to_re "jjj"))) (re.++ (re.* (re.union (str.to_re "kk") (str.to_re "ll"))) (re.++ (re.+ (re.* (str.to_re "mm"))) (re.++ (re.+ (re.+ (str.to_re "nn"))) (re.++ (re.* (re.* (str.to_re "oo"))) (re.++ (re.* (re.* (str.to_re "ppp"))) (re.++ (re.* (re.* (str.to_re "qq"))) (re.++ (re.union (re.+ (str.to_re "r")) (re.+ (str.to_re "sss"))) (re.++ (re.union (re.* (str.to_re "tt")) (re.* (str.to_re "uu"))) (re.++ (re.union (re.union (str.to_re "vvv") (str.to_re "www")) (re.union (str.to_re "x") (str.to_re "y"))) (re.++ (re.+ (re.+ (str.to_re "zzz"))) (re.++ (re.union (re.* (str.to_re "AA")) (re.* (str.to_re "BBB"))) (re.++ (re.* (re.+ (str.to_re "CCC"))) (re.++ (re.union (re.+ (str.to_re "DDD")) (re.+ (str.to_re "EEE"))) (re.++ (re.* (re.union (str.to_re "FF") (str.to_re "G"))) (re.++ (re.* (re.+ (str.to_re "HH"))) (re.++ (re.union (re.union (str.to_re "III") (str.to_re "J")) (re.union (str.to_re "KK") (str.to_re "LL"))) (re.++ (re.union (re.* (str.to_re "MMM")) (re.* (str.to_re "NNN"))) (re.++ (re.union (re.+ (str.to_re "OO")) (re.+ (str.to_re "P"))) (re.++ (re.union (re.union (str.to_re "QQ") (str.to_re "R")) (re.union (str.to_re "SSS") (str.to_re "T"))) (re.++ (re.* (re.+ (str.to_re "UUU"))) (re.++ (re.+ (re.+ (str.to_re "V"))) (re.++ (re.+ (re.union (str.to_re "WW") (str.to_re "XX"))) (re.++ (re.* (re.+ (str.to_re "YYY"))) (re.++ (re.* (re.* (str.to_re "Z"))) (re.++ (re.union (re.* (str.to_re "!!!")) (re.* (str.to_re """"""))) (re.++ (re.union (re.* (str.to_re "###")) (re.* (str.to_re "$"))) (re.++ (re.+ (re.union (str.to_re "%%") (str.to_re "&&"))) (re.++ (re.union (re.+ (str.to_re "'")) (re.+ (str.to_re "((("))) (re.++ (re.* (re.* (str.to_re ")"))) (re.++ (re.* (re.union (str.to_re "***") (str.to_re "++"))) (re.++ (re.union (re.union (str.to_re ",") (str.to_re "---")) (re.union (str.to_re "..") (str.to_re "///"))) (re.++ (re.union (re.* (str.to_re ":")) (re.* (str.to_re ";;;"))) (re.++ (re.union (re.* (str.to_re "<<<")) (re.* (str.to_re "=="))) (re.++ (re.union (re.+ (str.to_re ">>")) (re.+ (str.to_re "?"))) (re.++ (re.+ (re.* (str.to_re "@@@"))) (re.++ (re.+ (re.* (str.to_re "[[["))) (re.++ (re.+ (re.union (str.to_re "\\\\\\") (str.to_re "]]]"))) (re.++ (re.union (re.union (str.to_re "^^") (str.to_re "_")) (re.union (str.to_re "`") (str.to_re "{{{"))) (re.++ (re.+ (re.+ (str.to_re "||"))) (re.++ (re.* (re.union (str.to_re "}}}") (str.to_re "~~~"))) (re.++ (re.union (re.union (str.to_re "00") (str.to_re "11")) (re.union (str.to_re "222") (str.to_re "3"))) (re.++ (re.* (re.+ (str.to_re "44"))) (re.++ (re.union (re.union (str.to_re "555") (str.to_re "66")) (re.union (str.to_re "777") (str.to_re "88"))) (re.++ (re.union (re.* (str.to_re "99")) (re.* (str.to_re "aaa"))) (re.++ (re.union (re.* (str.to_re "bbb")) (re.* (str.to_re "ccc"))) (re.++ (re.+ (re.union (str.to_re "ddd") (str.to_re "eee"))) (re.++ (re.union (re.* (str.to_re "f")) (re.* (str.to_re "ggg"))) (re.++ (re.union (re.union (str.to_re "h") (str.to_re "iii")) (re.union (str.to_re "jjj") (str.to_re "kkk"))) (re.++ (re.union (re.* (str.to_re "ll")) (re.* (str.to_re "mm"))) (re.++ (re.* (re.* (str.to_re "n"))) (re.++ (re.* (re.+ (str.to_re "ooo"))) (re.++ (re.union (re.+ (str.to_re "ppp")) (re.+ (str.to_re "qq"))) (re.++ (re.* (re.union (str.to_re "rr") (str.to_re "sss"))) (re.++ (re.union (re.union (str.to_re "t") (str.to_re "uu")) (re.union (str.to_re "vv") (str.to_re "ww"))) (re.++ (re.+ (re.* (str.to_re "x"))) (re.++ (re.* (re.+ (str.to_re "yy"))) (re.++ (re.* (re.+ (str.to_re "zzz"))) (re.++ (re.+ (re.union (str.to_re "AA") (str.to_re "BB"))) (re.++ (re.+ (re.+ (str.to_re "CC"))) (re.++ (re.* (re.union (str.to_re "D") (str.to_re "E"))) (re.++ (re.union (re.union (str.to_re "FFF") (str.to_re "GGG")) (re.union (str.to_re "HH") (str.to_re "I"))) (re.++ (re.* (re.* (str.to_re "JJJ"))) (re.+ (re.union (str.to_re "KKK") (str.to_re "LLL"))))))))))))))))))))))))))))))))))))))))))))))))))))))))))))))))))))))))))))))))
(assert (not (str.in_re var0 (re.++ (re.+ (re.+ (str.to_re "0"))) (re.++ (re.union (re.* (str.to_re "111")) (re.* (str.to_re "22"))) (re.++ (re.union (re.+ (str.to_re "3")) (re.+ (str.to_re "444"))) (re.++ (re.* (re.union (str.to_re "555") (str.to_re "6"))) (re.++ (re.* (re.+ (str.to_re "7"))) (re.++ (re.+ (re.+ (str.to_re "88"))) (re.++ (re.* (re.* (str.to_re "99"))) (re.++ (re.* (re.* (str.to_re "aaa"))) (re.++ (re.union (re.+ (str.to_re "b")) (re.+ (str.to_re "cc"))) (re.++ (re.+ (re.union (str.to_re "d") (str.to_re "ee"))) (re.++ (re.* (re.union (str.to_re "ff") (str.to_re "gg"))) (re.++ (re.union (re.+ (str.to_re "hh")) (re.+ (str.to_re "iii"))) (re.++ (re.union (re.+ (str.to_re "jj")) (re.+ (str.to_re "k"))) (re.++ (re.union (re.union (str.to_re "lll") (str.to_re "m")) (re.union (str.to_re "nnn") (str.to_re "o"))) (re.++ (re.union (re.* (str.to_re "pp")) (re.* (str.to_re "qq"))) (re.++ (re.+ (re.* (str.to_re "rr"))) (re.++ (re.* (re.* (str.to_re "ss"))) (re.++ (re.* (re.union (str.to_re "ttt") (str.to_re "uu"))) (re.++ (re.union (re.union (str.to_re "v") (str.to_re "ww")) (re.union (str.to_re "xxx") (str.to_re "y"))) (re.++ (re.* (re.union (str.to_re "zzz") (str.to_re "A"))) (re.++ (re.union (re.union (str.to_re "BB") (str.to_re "CC")) (re.union (str.to_re "DDD") (str.to_re "EE"))) (re.++ (re.union (re.union (str.to_re "FF") (str.to_re "G")) (re.union (str.to_re "H") (str.to_re "I"))) (re.++ (re.* (re.* (str.to_re "JJ"))) (re.++ (re.+ (re.union (str.to_re "KK") (str.to_re "LL"))) (re.++ (re.* (re.+ (str.to_re "M"))) (re.++ (re.* (re.union (str.to_re "NNN") (str.to_re "OOO"))) (re.++ (re.union (re.union (str.to_re "P") (str.to_re "QQQ")) (re.union (str.to_re "R") (str.to_re "SSS"))) (re.++ (re.* (re.union (str.to_re "TTT") (str.to_re "UU"))) (re.++ (re.union (re.* (str.to_re "VVV")) (re.* (str.to_re "WW"))) (re.++ (re.union (re.* (str.to_re "X")) (re.* (str.to_re "Y"))) (re.++ (re.+ (re.union (str.to_re "ZZZ") (str.to_re "!!"))) (re.++ (re.union (re.union (str.to_re """""") (str.to_re "#")) (re.union (str.to_re "$") (str.to_re "%"))) (re.++ (re.+ (re.* (str.to_re "&&&"))) (re.++ (re.union (re.* (str.to_re "'''")) (re.* (str.to_re "("))) (re.++ (re.+ (re.+ (str.to_re ")))"))) (re.++ (re.* (re.+ (str.to_re "**"))) (re.++ (re.union (re.+ (str.to_re "+++")) (re.+ (str.to_re ",,"))) (re.++ (re.+ (re.* (str.to_re "--"))) (re.++ (re.* (re.union (str.to_re "...") (str.to_re "///"))) (re.++ (re.+ (re.union (str.to_re ":") (str.to_re ";;"))) (re.++ (re.* (re.+ (str.to_re "<<<"))) (re.++ (re.* (re.* (str.to_re "==="))) (re.++ (re.union (re.* (str.to_re ">")) (re.* (str.to_re "?"))) (re.++ (re.* (re.* (str.to_re "@@"))) (re.++ (re.* (re.union (str.to_re "[") (str.to_re "\\\\\\"))) (re.++ (re.union (re.+ (str.to_re "]")) (re.+ (str.to_re "^^"))) (re.++ (re.+ (re.union (str.to_re "___") (str.to_re "```"))) (re.++ (re.* (re.* (str.to_re "{{{"))) (re.++ (re.union (re.+ (str.to_re "|")) (re.+ (str.to_re "}"))) (re.++ (re.* (re.+ (str.to_re "~~~"))) (re.++ (re.+ (re.+ (str.to_re "00"))) (re.++ (re.+ (re.union (str.to_re "11") (str.to_re "222"))) (re.++ (re.* (re.* (str.to_re "3"))) (re.++ (re.* (re.+ (str.to_re "4"))) (re.++ (re.union (re.+ (str.to_re "555")) (re.+ (str.to_re "66"))) (re.++ (re.* (re.union (str.to_re "77") (str.to_re "888"))) (re.++ (re.+ (re.+ (str.to_re "9"))) (re.++ (re.union (re.+ (str.to_re "aaa")) (re.+ (str.to_re "bbb"))) (re.++ (re.union (re.* (str.to_re "ccc")) (re.* (str.to_re "ddd"))) (re.++ (re.union (re.union (str.to_re "eee") (str.to_re "ff")) (re.union (str.to_re "gg") (str.to_re "hh"))) (re.++ (re.+ (re.* (str.to_re "iii"))) (re.++ (re.* (re.+ (str.to_re "jj"))) (re.++ (re.union (re.union (str.to_re "k") (str.to_re "l")) (re.union (str.to_re "mm") (str.to_re "nnn"))) (re.++ (re.union (re.+ (str.to_re "oo")) (re.+ (str.to_re "p"))) (re.++ (re.* (re.* (str.to_re "q"))) (re.++ (re.+ (re.+ (str.to_re "rrr"))) (re.++ (re.union (re.* (str.to_re "sss")) (re.* (str.to_re "t"))) (re.++ (re.union (re.union (str.to_re "uu") (str.to_re "vv")) (re.union (str.to_re "w") (str.to_re "xxx"))) (re.++ (re.* (re.+ (str.to_re "y"))) (re.++ (re.* (re.+ (str.to_re "zz"))) (re.++ (re.union (re.+ (str.to_re "AA")) (re.+ (str.to_re "BBB"))) (re.++ (re.* (re.* (str.to_re "C"))) (re.++ (re.+ (re.union (str.to_re "DDD") (str.to_re "EE"))) (re.++ (re.* (re.* (str.to_re "F"))) (re.++ (re.union (re.* (str.to_re "GG")) (re.* (str.to_re "HHH"))) (re.+ (re.+ (str.to_re "III")))))))))))))))))))))))))))))))))))))))))))))))))))))))))))))))))))))))))))))))))
(check-sat)